/* Objective function */
max: ;

/* Constraints */
+x23 +x24 <= 0;
R2: +x25 <= 0;
R3: +x15 <= 0;
R4: +x3 <= 0;
R5: +x10 <= 0;
R6: +x5 <= 0;
R7: +x6 <= 0;
R8: +x11 <= 0;
R9: +x7 <= 0;
R10: +x16 <= 0;
R11: +x2 <= 0;
R12: +x1 <= 0;
R13: +x4 <= 0;
R14: +x10 <= 0;
R15: +x2 <= 0;
R16: +x11 <= 0;
R17: +x5 <= 0;
R18: +x7 <= 0;
R19: +x1 <= 0;
R20: +x4 <= 0;
R21: +x16 <= 0;
R22: +x6 <= 0;
R23: +x15 <= 0;
R24: +x10 <= 0;
R25: +x26 <= 0;
R26: +x2 <= 0;
R27: +x2 <= 0;
R28: +x2 <= 0;
R29: +x27 <= 0;
R30: +x2 <= 0;
R31: +x8 <= 0;
+x8 +x12 <= 0;
R33: +x17 <= 0;
R34: +x12 <= 0;
R35: +x12 <= 0;
R36: +x8 <= 0;
R37: +x8 <= 0;
R38: +x17 <= 0;
R39: +x20 <= 0;
+x18 +x19 <= 0;
R41: +x18 <= 0;
R42: +x19 <= 0;
R43: +x20 <= 0;
R44: +x28 <= 0;
R45: +x22 <= 0;
R46: +x9 <= 0;
+x9 +x21 <= 0;
R48: +x9 <= 0;
R49: +x21 <= 0;
R50: +x9 <= 0;
R51: +x22 <= 0;
R52: +x3 <= 0;
R53: +x3 <= 0;
R54: +x3 <= 0;
R55: +x3 <= 0;
R56: +x7 <= 0;
R57: +x29 <= 0;
R58: +x7 <= 0;
R59: +x30 <= 0;
R60: +x1 <= 0;
+x1 +x23 <= 0;
R62: +x1 <= 0;
R63: +x1 <= 0;
R64: +x1 <= 0;
R65: +x1 <= 0;
R66: +x6 <= 0;
+x13 +x14 <= 0;
+x13 +x14 <= 0;
R69: +x13 <= 0;
R70: +x14 <= 0;
R71: +x6 <= 0;
R72: +x11 <= 0;
R73: +x31 <= 0;
R74: +x5 <= 0;
R75: +x5 <= 0;
+x34 +x35 <= 0;
R77: +x32 <= 0;
R78: +x33 <= 0;
0 x1 <= 1;
R80: +x4 <= 0;
R81: +x4 <= 0;
R82: +x24 >= 0;
R83: +x20 >= 0;
R84: +x28 >= 0;
R85: +x3 >= 0;
R86: +x22 >= 0;
R87: +x5 >= 0;
R88: +x6 >= 0;
R89: +x11 >= 0;
R90: +x7 >= 0;
R91: +x17 >= 0;
R92: +x2 >= 0;
R93: +x1 >= 0;
R94: +x4 >= 0;
R95: +x17 >= 0;
R96: +x6 >= 0;
R97: +x22 >= 0;
R98: +x11 >= 0;
R99: +x2 >= 0;
R100: +x1 >= 0;
R101: +x7 >= 0;
R102: +x5 >= 0;
R103: +x20 >= 0;
R104: +x3 >= 0;
R105: +x2 >= 0;
R106: +x26 >= 0;
R107: +x2 >= 0;
R108: +x2 >= 0;
R109: +x2 >= 0;
R110: +x27 >= 0;
R111: +x8 >= 0;
R112: +x16 >= 0;
+x8 +x12 >= 0;
R114: +x12 >= 0;
R115: +x12 >= 0;
R116: +x8 >= 0;
R117: +x8 >= 0;
R118: +x16 >= 0;
+x18 +x19 >= 0;
R120: +x25 >= 0;
R121: +x18 >= 0;
R122: +x19 >= 0;
R123: +x25 >= 0;
R124: +x15 >= 0;
+x9 +x21 >= 0;
R126: +x9 >= 0;
R127: +x10 >= 0;
R128: +x9 >= 0;
R129: +x21 >= 0;
R130: +x9 >= 0;
R131: +x10 >= 0;
R132: +x3 >= 0;
R133: +x3 >= 0;
R134: +x3 >= 0;
R135: +x3 >= 0;
R136: +x7 >= 0;
R137: +x7 >= 0;
R138: +x30 >= 0;
R139: +x29 >= 0;
R140: +x1 >= 0;
R141: +x23 >= 0;
R142: +x1 >= 0;
R143: +x1 >= 0;
R144: +x1 >= 0;
R145: +x1 >= 0;
R146: +x6 >= 0;
R147: +x6 >= 0;
R148: +x14 >= 0;
R149: +x13 >= 0;
+x13 +x14 >= 0;
+x13 +x14 >= 0;
R152: +x11 >= 0;
R153: +x5 >= 0;
R154: +x31 >= 0;
+x32 +x33 >= 0;
R156: +x5 >= 0;
R157: +x34 >= 0;
R158: +x35 >= 0;
R159: +x4 >= 0;
R160: +x4 >= 0;
R161: +x4 >= 0;
R162: +x1 >= 0;
R163: +x2 >= 0;
R164: +x3 >= 0;
R165: +x4 >= 0;
R166: +x5 >= 0;
R167: +x6 >= 0;
R168: +x7 >= 0;
R169: +x8 >= 0;
R170: +x9 >= 0;
R171: +x10 >= 0;
R172: +x11 >= 0;
R173: +x12 >= 0;
R174: +x13 >= 0;
R175: +x14 >= 0;
R176: +x15 >= 0;
R177: +x16 >= 0;
R178: +x17 >= 0;
R179: +x18 >= 0;
R180: +x19 >= 0;
R181: +x20 >= 0;
R182: +x21 >= 0;
R183: +x22 >= 0;
R184: +x23 >= 0;
R185: +x24 >= 0;
R186: +x25 >= 0;
R187: +x26 >= 0;
R188: +x27 >= 0;
R189: +x28 >= 0;
R190: +x29 >= 0;
R191: +x30 >= 0;
R192: +x31 >= 0;
R193: +x32 >= 0;
R194: +x33 >= 0;
R195: +x34 >= 0;
R196: +x35 >= 0;
